2864
72
71
70
69
68
67
66
85
84
83
82
88
87
113
116
86
65
64
63
59
58
57
44
56
55
54
47
48
53
49
52
51
50
37
36
35
38
39
40
41
42
46
45
43
60
61
62
118
117
115
114
111
112
89
90
91
92
102
103
104
109
110
108
105
106
107
174
161
175
160
159
158
157
119
120
152
156
153
155
154
121
122
123
124
125
126
127
128
129
130
131
132
133
17
18
19
20
21
29
31
30
34
33
32
28
27
26
22
25
23
24
14
13
15
12
11
10
8
9
7
6
5
4
277
276
275
274
273
272
271
16
270
134
269
135
136
268
137
138
266
267
265
264
263
253
252
255
254
256
257
258
259
262
261
260
278
279
3
2
1
0
243
242
241
244
247
248
249
250
251
230
229
232
231
246
245
240
239
238
237
233
236
235
234
228
227
226
225
224
223
222
221
219
220
217
218
215
216
213
214
211
210
209
208
207
212
206
205
204
203
202
200
201
198
199
144
145
146
143
142
147
148
141
140
139
149
150
179
178
151
177
176
181
180
182
183
184
185
187
186
193
194
197
196
195
192
191
190
189
188
162
163
164
165
166
167
168
172
171
173
170
169
101
100
99
98
97
96
95
94
93
80
81
79
78
77
75
76
74
73

